TOUR_SECTION
1
45
16
32
31
63
163
185
152
29
46
80
116
144
141
115
34
14
200
157
72
179
167
114
166
67
39
86
69
147
36
135
71
53
148
172
133
137
100
22
42
124
54
104
94
150
55
85
160
107
193
112
76
56
41
44
128
190
17
92
175
180
43
66
59
182
165
40
37
3
81
82
15
171
120
58
145
127
199
25
184
126
4
122
151
35
89
6
183
186
155
87
139
153
117
91
75
195
64
187
93
134
96
130
169
162
5
198
52
84
113
102
7
196
98
97
118
88
174
101
38
57
19
197
95
181
18
194
8
79
12
10
138
51
68
61
9
111
73
119
178
191
173
20
11
121
201
49
188
177
30
154
142
62
83
164
123
146
78
156
103
105
70
13
74
110
50
33
65
2
60
21
47
149
27
189
28
131
140
108
136
159
161
23
176
26
168
125
99
143
48
106
77
90
170
132
24
192
129
109
158
-1
EOF